21° run output:
{
    "Function": "kroB1000.tsp",
    "Problem dimension": [
        214,
        514,
        987,
        497,
        678,
        43,
        587,
        280,
        529,
        661,
        747,
        941,
        893,
        202,
        867,
        150,
        577,
        215,
        443,
        22,
        964,
        578,
        619,
        842,
        107,
        753,
        679,
        120,
        378,
        601,
        975,
        805,
        855,
        861,
        937,
        717,
        217,
        972,
        122,
        320,
        292,
        685,
        566,
        139,
        938,
        621,
        694,
        216,
        506,
        913,
        998,
        5,
        350,
        752,
        156,
        233,
        848,
        145,
        91,
        575,
        613,
        890,
        84,
        318,
        990,
        285,
        684,
        403,
        827,
        795,
        715,
        275,
        491,
        414,
        392,
        815,
        239,
        408,
        537,
        231,
        703,
        995,
        326,
        77,
        296,
        101,
        451,
        789,
        253,
        572,
        625,
        111,
        749,
        59,
        276,
        897,
        269,
        838,
        970,
        881,
        824,
        294,
        565,
        607,
        705,
        190,
        227,
        570,
        185,
        330,
        711,
        914,
        667,
        610,
        598,
        130,
        879,
        424,
        468,
        910,
        563,
        925,
        349,
        931,
        494,
        94,
        4,
        819,
        114,
        811,
        287,
        534,
        183,
        687,
        892,
        332,
        951,
        721,
        161,
        783,
        141,
        657,
        305,
        888,
        383,
        450,
        632,
        99,
        492,
        16,
        81,
        422,
        934,
        588,
        858,
        803,
        17,
        328,
        906,
        345,
        728,
        516,
        379,
        13,
        23,
        271,
        700,
        388,
        390,
        590,
        459,
        229,
        854,
        134,
        433,
        877,
        369,
        651,
        311,
        734,
        589,
        92,
        142,
        539,
        333,
        471,
        386,
        309,
        291,
        736,
        266,
        389,
        149,
        790,
        191,
        982,
        773,
        226,
        633,
        249,
        780,
        527,
        850,
        138,
        704,
        364,
        143,
        212,
        82,
        596,
        461,
        83,
        905,
        67,
        463,
        496,
        668,
        723,
        792,
        922,
        53,
        198,
        490,
        478,
        787,
        446,
        479,
        730,
        623,
        56,
        630,
        192,
        377,
        919,
        317,
        515,
        69,
        924,
        172,
        362,
        653,
        95,
        49,
        200,
        557,
        205,
        154,
        104,
        30,
        405,
        645,
        160,
        834,
        246,
        751,
        659,
        510,
        353,
        720,
        696,
        637,
        295,
        763,
        235,
        609,
        899,
        165,
        644,
        900,
        808,
        714,
        60,
        307,
        660,
        946,
        420,
        473,
        250,
        513,
        460,
        933,
        677,
        584,
        48,
        754,
        851,
        757,
        974,
        306,
        428,
        34,
        915,
        935,
        40,
        992,
        25,
        265,
        224,
        977,
        836,
        373,
        866,
        57,
        820,
        363,
        671,
        339,
        201,
        952,
        346,
        669,
        656,
        617,
        690,
        875,
        108,
        839,
        699,
        50,
        771,
        474,
        912,
        449,
        999,
        981,
        737,
        355,
        398,
        663,
        372,
        397,
        316,
        876,
        423,
        585,
        841,
        255,
        286,
        210,
        263,
        66,
        90,
        448,
        732,
        559,
        282,
        856,
        334,
        746,
        602,
        485,
        167,
        356,
        647,
        33,
        119,
        322,
        816,
        550,
        774,
        639,
        528,
        243,
        658,
        0,
        413,
        551,
        283,
        455,
        546,
        140,
        806,
        718,
        706,
        357,
        402,
        438,
        127,
        382,
        902,
        340,
        12,
        544,
        80,
        230,
        852,
        725,
        708,
        569,
        9,
        195,
        301,
        636,
        843,
        501,
        261,
        87,
        921,
        344,
        796,
        707,
        367,
        702,
        14,
        54,
        986,
        232,
        997,
        44,
        571,
        46,
        98,
        686,
        128,
        564,
        770,
        606,
        574,
        853,
        826,
        248,
        620,
        58,
        739,
        600,
        950,
        697,
        988,
        498,
        615,
        51,
        627,
        907,
        809,
        956,
        380,
        547,
        555,
        724,
        581,
        298,
        482,
        812,
        759,
        61,
        847,
        930,
        470,
        117,
        254,
        194,
        88,
        558,
        762,
        909,
        960,
        499,
        654,
        146,
        984,
        597,
        782,
        105,
        76,
        825,
        538,
        2,
        722,
        878,
        11,
        486,
        209,
        766,
        635,
        464,
        786,
        768,
        512,
        100,
        220,
        348,
        519,
        421,
        199,
        614,
        683,
        370,
        416,
        71,
        923,
        15,
        404,
        476,
        748,
        929,
        583,
        947,
        193,
        846,
        835,
        626,
        136,
        871,
        713,
        35,
        916,
        695,
        817,
        840,
        45,
        799,
        472,
        116,
        387,
        110,
        797,
        290,
        556,
        885,
        691,
        368,
        395,
        968,
        777,
        833,
        779,
        729,
        135,
        219,
        175,
        75,
        535,
        65,
        31,
        258,
        926,
        27,
        159,
        238,
        384,
        435,
        618,
        592,
        452,
        126,
        431,
        829,
        252,
        611,
        710,
        374,
        823,
        500,
        863,
        342,
        70,
        293,
        115,
        164,
        37,
        436,
        526,
        274,
        870,
        73,
        882,
        234,
        129,
        616,
        688,
        908,
        103,
        872,
        504,
        889,
        393,
        447,
        218,
        124,
        918,
        958,
        297,
        942,
        163,
        170,
        532,
        903,
        738,
        213,
        742,
        26,
        927,
        561,
        300,
        24,
        898,
        148,
        631,
        247,
        8,
        643,
        518,
        750,
        418,
        543,
        419,
        548,
        153,
        123,
        726,
        396,
        646,
        781,
        895,
        865,
        954,
        818,
        21,
        439,
        401,
        86,
        480,
        207,
        810,
        303,
        241,
        223,
        536,
        381,
        240,
        256,
        426,
        652,
        743,
        756,
        517,
        508,
        891,
        595,
        886,
        93,
        469,
        260,
        222,
        978,
        343,
        242,
        132,
        967,
        568,
        262,
        64,
        188,
        484,
        920,
        582,
        113,
        20,
        180,
        251,
        427,
        955,
        864,
        744,
        453,
        354,
        831,
        962,
        553,
        399,
        814,
        883,
        939,
        352,
        758,
        971,
        591,
        991,
        208,
        186,
        437,
        96,
        509,
        794,
        187,
        533,
        391,
        503,
        462,
        638,
        894,
        329,
        767,
        745,
        39,
        884,
        675,
        489,
        270,
        74,
        505,
        259,
        648,
        932,
        347,
        228,
        456,
        741,
        804,
        131,
        985,
        429,
        299,
        567,
        649,
        943,
        365,
        896,
        701,
        832,
        828,
        1,
        206,
        560,
        603,
        157,
        880,
        682,
        264,
        580,
        525,
        552,
        375,
        366,
        272,
        674,
        288,
        612,
        666,
        477,
        586,
        177,
        237,
        709,
        278,
        760,
        712,
        225,
        665,
        562,
        716,
        948,
        488,
        321,
        761,
        785,
        102,
        7,
        802,
        244,
        959,
        133,
        410,
        6,
        475,
        151,
        147,
        32,
        155,
        181,
        454,
        152,
        203,
        109,
        788,
        579,
        417,
        29,
        966,
        327,
        41,
        125,
        483,
        769,
        979,
        376,
        772,
        599,
        361,
        862,
        304,
        801,
        121,
        965,
        604,
        784,
        949,
        331,
        593,
        887,
        162,
        776,
        542,
        845,
        118,
        727,
        169,
        312,
        144,
        174,
        400,
        411,
        63,
        844,
        793,
        664,
        211,
        502,
        166,
        257,
        97,
        511,
        945,
        425,
        325,
        323,
        531,
        182,
        55,
        72,
        281,
        755,
        681,
        28,
        594,
        324,
        112,
        798,
        137,
        605,
        980,
        179,
        917,
        445,
        268,
        10,
        441,
        640,
        520,
        989,
        415,
        337,
        545,
        466,
        936,
        775,
        432,
        196,
        409,
        458,
        940,
        407,
        444,
        267,
        412,
        693,
        434,
        442,
        168,
        457,
        481,
        622,
        336,
        733,
        642,
        79,
        689,
        245,
        629,
        868,
        928,
        313,
        857,
        549,
        573,
        800,
        52,
        38,
        719,
        740,
        338,
        540,
        944,
        778,
        901,
        78,
        973,
        791,
        385,
        813,
        608,
        62,
        692,
        204,
        106,
        302,
        360,
        507,
        849,
        319,
        673,
        822,
        874,
        676,
        963,
        830,
        273,
        42,
        158,
        341,
        554,
        807,
        953,
        310,
        358,
        465,
        315,
        873,
        406,
        524,
        860,
        289,
        184,
        3,
        735,
        89,
        440,
        869,
        680,
        493,
        176,
        541,
        221,
        335,
        821,
        624,
        173,
        837,
        189,
        904,
        655,
        993,
        277,
        68,
        308,
        171,
        765,
        976,
        698,
        47,
        521,
        236,
        522,
        467,
        662,
        996,
        178,
        957,
        371,
        314,
        731,
        859,
        650,
        530,
        18,
        764,
        430,
        359,
        994,
        634,
        523,
        641,
        284,
        394,
        961,
        628,
        487,
        279,
        576,
        672,
        911,
        969,
        197,
        351,
        983,
        495,
        85,
        19,
        36,
        670
    ],
    "Global Optimum": 0,
    "Algorithm": "Genetic algorithm",
    "Parameters": {
        "population": 30,
        "offspring": 30,
        "mutation probability": 0.001,
        "crossover probability": 0.9
    },
    "Fitness": 1349792,
    "Solution": [
        214,
        514,
        987,
        497,
        678,
        43,
        587,
        280,
        529,
        661,
        747,
        941,
        893,
        202,
        867,
        150,
        577,
        215,
        443,
        22,
        964,
        578,
        619,
        842,
        107,
        753,
        679,
        120,
        378,
        601,
        975,
        805,
        855,
        861,
        937,
        717,
        217,
        972,
        122,
        320,
        292,
        685,
        566,
        139,
        938,
        621,
        694,
        216,
        506,
        913,
        998,
        5,
        350,
        752,
        156,
        233,
        848,
        145,
        91,
        575,
        613,
        890,
        84,
        318,
        990,
        285,
        684,
        403,
        827,
        795,
        715,
        275,
        491,
        414,
        392,
        815,
        239,
        408,
        537,
        231,
        703,
        995,
        326,
        77,
        296,
        101,
        451,
        789,
        253,
        572,
        625,
        111,
        749,
        59,
        276,
        897,
        269,
        838,
        970,
        881,
        824,
        294,
        565,
        607,
        705,
        190,
        227,
        570,
        185,
        330,
        711,
        914,
        667,
        610,
        598,
        130,
        879,
        424,
        468,
        910,
        563,
        925,
        349,
        931,
        494,
        94,
        4,
        819,
        114,
        811,
        287,
        534,
        183,
        687,
        892,
        332,
        951,
        721,
        161,
        783,
        141,
        657,
        305,
        888,
        383,
        450,
        632,
        99,
        492,
        16,
        81,
        422,
        934,
        588,
        858,
        803,
        17,
        328,
        906,
        345,
        728,
        516,
        379,
        13,
        23,
        271,
        700,
        388,
        390,
        590,
        459,
        229,
        854,
        134,
        433,
        877,
        369,
        651,
        311,
        734,
        589,
        92,
        142,
        539,
        333,
        471,
        386,
        309,
        291,
        736,
        266,
        389,
        149,
        790,
        191,
        982,
        773,
        226,
        633,
        249,
        780,
        527,
        850,
        138,
        704,
        364,
        143,
        212,
        82,
        596,
        461,
        83,
        905,
        67,
        463,
        496,
        668,
        723,
        792,
        922,
        53,
        198,
        490,
        478,
        787,
        446,
        479,
        730,
        623,
        56,
        630,
        192,
        377,
        919,
        317,
        515,
        69,
        924,
        172,
        362,
        653,
        95,
        49,
        200,
        557,
        205,
        154,
        104,
        30,
        405,
        645,
        160,
        834,
        246,
        751,
        659,
        510,
        353,
        720,
        696,
        637,
        295,
        763,
        235,
        609,
        899,
        165,
        644,
        900,
        808,
        714,
        60,
        307,
        660,
        946,
        420,
        473,
        250,
        513,
        460,
        933,
        677,
        584,
        48,
        754,
        851,
        757,
        974,
        306,
        428,
        34,
        915,
        935,
        40,
        992,
        25,
        265,
        224,
        977,
        836,
        373,
        866,
        57,
        820,
        363,
        671,
        339,
        201,
        952,
        346,
        669,
        656,
        617,
        690,
        875,
        108,
        839,
        699,
        50,
        771,
        474,
        912,
        449,
        999,
        981,
        737,
        355,
        398,
        663,
        372,
        397,
        316,
        876,
        423,
        585,
        841,
        255,
        286,
        210,
        263,
        66,
        90,
        448,
        732,
        559,
        282,
        856,
        334,
        746,
        602,
        485,
        167,
        356,
        647,
        33,
        119,
        322,
        816,
        550,
        774,
        639,
        528,
        243,
        658,
        0,
        413,
        551,
        283,
        455,
        546,
        140,
        806,
        718,
        706,
        357,
        402,
        438,
        127,
        382,
        902,
        340,
        12,
        544,
        80,
        230,
        852,
        725,
        708,
        569,
        9,
        195,
        301,
        636,
        843,
        501,
        261,
        87,
        921,
        344,
        796,
        707,
        367,
        702,
        14,
        54,
        986,
        232,
        997,
        44,
        571,
        46,
        98,
        686,
        128,
        564,
        770,
        606,
        574,
        853,
        826,
        248,
        620,
        58,
        739,
        600,
        950,
        697,
        988,
        498,
        615,
        51,
        627,
        907,
        809,
        956,
        380,
        547,
        555,
        724,
        581,
        298,
        482,
        812,
        759,
        61,
        847,
        930,
        470,
        117,
        254,
        194,
        88,
        558,
        762,
        909,
        960,
        499,
        654,
        146,
        984,
        597,
        782,
        105,
        76,
        825,
        538,
        2,
        722,
        878,
        11,
        486,
        209,
        766,
        635,
        464,
        786,
        768,
        512,
        100,
        220,
        348,
        519,
        421,
        199,
        614,
        683,
        370,
        416,
        71,
        923,
        15,
        404,
        476,
        748,
        929,
        583,
        947,
        193,
        846,
        835,
        626,
        136,
        871,
        713,
        35,
        916,
        695,
        817,
        840,
        45,
        799,
        472,
        116,
        387,
        110,
        797,
        290,
        556,
        885,
        691,
        368,
        395,
        968,
        777,
        833,
        779,
        729,
        135,
        219,
        175,
        75,
        535,
        65,
        31,
        258,
        926,
        27,
        159,
        238,
        384,
        435,
        618,
        592,
        452,
        126,
        431,
        829,
        252,
        611,
        710,
        374,
        823,
        500,
        863,
        342,
        70,
        293,
        115,
        164,
        37,
        436,
        526,
        274,
        870,
        73,
        882,
        234,
        129,
        616,
        688,
        908,
        103,
        872,
        504,
        889,
        393,
        447,
        218,
        124,
        918,
        958,
        297,
        942,
        163,
        170,
        532,
        903,
        738,
        213,
        742,
        26,
        927,
        561,
        300,
        24,
        898,
        148,
        631,
        247,
        8,
        643,
        518,
        750,
        418,
        543,
        419,
        548,
        153,
        123,
        726,
        396,
        646,
        781,
        895,
        865,
        954,
        818,
        21,
        439,
        401,
        86,
        480,
        207,
        810,
        303,
        241,
        223,
        536,
        381,
        240,
        256,
        426,
        652,
        743,
        756,
        517,
        508,
        891,
        595,
        886,
        93,
        469,
        260,
        222,
        978,
        343,
        242,
        132,
        967,
        568,
        262,
        64,
        188,
        484,
        920,
        582,
        113,
        20,
        180,
        251,
        427,
        955,
        864,
        744,
        453,
        354,
        831,
        962,
        553,
        399,
        814,
        883,
        939,
        352,
        758,
        971,
        591,
        991,
        208,
        186,
        437,
        96,
        509,
        794,
        187,
        533,
        391,
        503,
        462,
        638,
        894,
        329,
        767,
        745,
        39,
        884,
        675,
        489,
        270,
        74,
        505,
        259,
        648,
        932,
        347,
        228,
        456,
        741,
        804,
        131,
        985,
        429,
        299,
        567,
        649,
        943,
        365,
        896,
        701,
        832,
        828,
        1,
        206,
        560,
        603,
        157,
        880,
        682,
        264,
        580,
        525,
        552,
        375,
        366,
        272,
        674,
        288,
        612,
        666,
        477,
        586,
        177,
        237,
        709,
        278,
        760,
        712,
        225,
        665,
        562,
        716,
        948,
        488,
        321,
        761,
        785,
        102,
        7,
        802,
        244,
        959,
        133,
        410,
        6,
        475,
        151,
        147,
        32,
        155,
        181,
        454,
        152,
        203,
        109,
        788,
        579,
        417,
        29,
        966,
        327,
        41,
        125,
        483,
        769,
        979,
        376,
        772,
        599,
        361,
        862,
        304,
        801,
        121,
        965,
        604,
        784,
        949,
        331,
        593,
        887,
        162,
        776,
        542,
        845,
        118,
        727,
        169,
        312,
        144,
        174,
        400,
        411,
        63,
        844,
        793,
        664,
        211,
        502,
        166,
        257,
        97,
        511,
        945,
        425,
        325,
        323,
        531,
        182,
        55,
        72,
        281,
        755,
        681,
        28,
        594,
        324,
        112,
        798,
        137,
        605,
        980,
        179,
        917,
        445,
        268,
        10,
        441,
        640,
        520,
        989,
        415,
        337,
        545,
        466,
        936,
        775,
        432,
        196,
        409,
        458,
        940,
        407,
        444,
        267,
        412,
        693,
        434,
        442,
        168,
        457,
        481,
        622,
        336,
        733,
        642,
        79,
        689,
        245,
        629,
        868,
        928,
        313,
        857,
        549,
        573,
        800,
        52,
        38,
        719,
        740,
        338,
        540,
        944,
        778,
        901,
        78,
        973,
        791,
        385,
        813,
        608,
        62,
        692,
        204,
        106,
        302,
        360,
        507,
        849,
        319,
        673,
        822,
        874,
        676,
        963,
        830,
        273,
        42,
        158,
        341,
        554,
        807,
        953,
        310,
        358,
        465,
        315,
        873,
        406,
        524,
        860,
        289,
        184,
        3,
        735,
        89,
        440,
        869,
        680,
        493,
        176,
        541,
        221,
        335,
        821,
        624,
        173,
        837,
        189,
        904,
        655,
        993,
        277,
        68,
        308,
        171,
        765,
        976,
        698,
        47,
        521,
        236,
        522,
        467,
        662,
        996,
        178,
        957,
        371,
        314,
        731,
        859,
        650,
        530,
        18,
        764,
        430,
        359,
        994,
        634,
        523,
        641,
        284,
        394,
        961,
        628,
        487,
        279,
        576,
        672,
        911,
        969,
        197,
        351,
        983,
        495,
        85,
        19,
        36,
        670
    ],
    "Nb of functions evaluations": 50010,
    "Computational time in seconds": 1452.1476037502289,
    "Stopping criterion in evaluations": 50000
}